[[45, 54, 53, 52, 51, 60, 61, 62, 63, 70, 71, 72, 81, 80, 69], [78, 68, 77, 79, 88, 89, 90, 99, 98, 97, 96, 87, 95], [86, 85, 84, 94, 93, 92, 91, 83, 82, 73, 76], [75, 74, 67, 66, 65, 64, 56, 57, 58, 59, 49, 55, 46, 47], [38, 48, 39, 40, 50, 41, 42, 33, 32, 31, 30, 29, 37, 28, 19], [21, 22, 20, 13, 12, 11, 10, 2, 3, 4, 14, 5, 6], [7, 8, 9, 17, 18, 16, 15, 23, 24, 25, 26, 27, 35, 36, 44, 34, 43]]